************************************************************************
file with basedata            : c60_.bas
initial value random generator: 1302491774
************************************************************************
projects                      :  1
jobs (incl. supersource/sink ):  62
horizon                       :  453
RESOURCES
  - renewable                 :  4   R
  - nonrenewable              :  0   N
  - doubly constrained        :  0   D
************************************************************************
PROJECT INFORMATION:
pronr.  #jobs rel.date duedate tardcost  MPM-Time
    1     60      0       74       58       74
************************************************************************
PRECEDENCE RELATIONS:
jobnr.    #modes  #successors   successors
   1        1          3           2   3   4
   2        1          3           5  14  27
   3        1          3          12  19  28
   4        1          3           7  10  18
   5        1          3           6   8  11
   6        1          2          13  61
   7        1          3           9  16  22
   8        1          1          26
   9        1          2          20  35
  10        1          2          15  17
  11        1          3          21  23  29
  12        1          1          24
  13        1          3          32  36  40
  14        1          2          25  30
  15        1          1          31
  16        1          1          42
  17        1          2          33  39
  18        1          1          34
  19        1          2          37  38
  20        1          1          41
  21        1          1          44
  22        1          1          43
  23        1          1          45
  24        1          1          46
  25        1          1          47
  26        1          1          48
  27        1          1          49
  28        1          1          50
  29        1          1          51
  30        1          1          52
  31        1          1          53
  32        1          1          54
  33        1          1          55
  34        1          1          56
  35        1          1          57
  36        1          1          58
  37        1          1          59
  38        1          1          60
  39        1          1          61
  40        1          1          61
  41        1          1          61
  42        1          1          61
  43        1          1          61
  44        1          1          61
  45        1          1          61
  46        1          1          61
  47        1          1          61
  48        1          1          61
  49        1          1          61
  50        1          1          61
  51        1          1          61
  52        1          1          61
  53        1          1          61
  54        1          1          61
  55        1          1          61
  56        1          1          61
  57        1          1          61
  58        1          1          61
  59        1          1          61
  60        1          1          61
  61        1          1          62
  62        1          0
************************************************************************
REQUESTS/DURATIONS:
jobnr. mode duration  R 1  R 2  R 3  R 4
------------------------------------------------------------------------
  1      1     0       0    0    0    0
  2      1     9       6    0    0    7
  3      1     6       0    0    7    0
  4      1     8       0    8    6    0
  5      1     6       0    0    0    8
  6      1     4       0    0    5    0
  7      1     7       6    0    9    0
  8      1     8       0    0    0    3
  9      1     9       4    5    0    0
 10      1     9       0    4    0    0
 11      1     2       6    0    0    0
 12      1     3       7    0    0    0
 13      1     8       0    0    0    9
 14      1     7       0    4    0    0
 15      1     6       0    0    3    0
 16      1     4       0    9    0    0
 17      1     5       7    0    0    0
 18      1     8       0    0    8    0
 19      1     9       0    3    0    0
 20      1     3       0    0    9    0
 21      1     7       0    0    0    2
 22      1     6       0    0    0    5
 23      1     5       0    7    0    0
 24      1     4       8    0    0    0
 25      1     9       0    0    4    0
 26      1     6       9    0    0    0
 27      1     8       0    6    0    0
 28      1     7       0    0    0    4
 29      1     3       0    0    6    0
 30      1     5       0    8    0    0
 31      1     4       0    0    0    7
 32      1     9       5    0    0    0
 33      1     7       0    0    5    0
 34      1     6       0    9    0    0
 35      1     8       0    0    0    6
 36      1     5       0    0    8    0
 37      1     4       0    5    0    0
 38      1     9       0    0    7    0
 39      1     3       4    0    0    0
 40      1     8       0    3    0    0
 41      1     7       0    0    0    8
 42      1     5       6    0    0    0
 43      1     9       0    0    0    9
 44      1     6       0    6    0    0
 45      1     8       5    0    0    0
 46      1     7       0    0    9    0
 47      1     5       0    0    0    6
 48      1     4       7    0    0    0
 49      1     9       0    7    0    0
 50      1     6       0    0    0    7
 51      1     8       0    0    5    0
 52      1     7       6    0    0    0
 53      1     5       0    0    6    0
 54      1     9       0    4    0    0
 55      1     4       0    0    0    8
 56      1     7       5    0    0    0
 57      1     6       0    0    7    0
 58      1     8       0    5    0    0
 59      1     9       0    0    8    0
 60      1     7       4    0    0    0
 61      1     5       0    0    0    5
 62      1     0       0    0    0    0
************************************************************************
RESOURCEAVAILABILITIES:
  R 1  R 2  R 3  R 4
   12   12   12   12
************************************************************************
